400
300 300
1 210 807
2 210 285
3 210 896
4 208 691
5 207 768
6 207 591
7 207 21
8 207 968
9 207 547
10 207 762
11 206 700
12 206 92
13 206 666
14 206 41
15 206 722
16 206 806
17 205 600
18 204 999
19 203 951
20 202 320
21 202 414
22 201 930
23 201 30
24 200 273
25 197 101
26 197 635
27 197 705
28 196 27
29 196 501
30 196 916
31 195 916
32 194 681
33 194 363
34 194 841
35 193 457
36 193 157
37 192 840
38 192 10
39 191 526
40 190 879
41 190 746
42 190 895
43 190 588
44 189 612
45 189 133
46 189 378
47 189 517
48 189 303
49 189 700
50 188 858
51 188 69
52 188 578
53 187 803
54 187 807
55 186 262
56 186 880
57 185 668
58 185 329
59 185 215
60 184 661
61 184 21
62 184 459
63 184 550
64 183 392
65 183 673
66 183 831
67 183 560
68 183 350
69 181 881
70 181 484
71 180 540
72 178 72
73 178 108
74 178 801
75 177 578
76 177 254
77 176 731
78 176 787
79 175 299
80 175 562
81 175 582
82 175 603
83 175 136
84 174 940
85 173 93
86 173 185
87 173 667
88 172 286
89 172 225
90 171 349
91 171 105
92 171 618
93 170 60
94 170 663
95 169 822
96 168 304
97 167 367
98 166 49
99 166 95
100 166 373
101 166 765
102 165 208
103 165 561
104 165 84
105 164 12
106 164 539
107 163 590
108 162 72
109 162 25
110 161 57
111 161 715
112 160 248
113 160 380
114 159 102
115 159 561
116 158 592
117 158 412
118 157 591
119 157 238
120 157 889
121 156 244
122 155 429
123 155 224
124 153 104
125 152 63
126 151 717
127 149 960
128 149 900
129 149 853
130 148 559
131 148 899
132 148 445
133 148 286
134 147 56
135 146 149
136 145 619
137 145 225
138 145 945
139 145 581
140 144 255
141 143 840
142 143 803
143 142 565
144 141 722
145 141 393
146 140 965
147 140 70
148 140 122
149 140 992
150 139 548
151 137 817
152 137 81
153 136 77
154 136 596
155 135 825
156 135 847
157 134 578
158 134 832
159 134 42
160 134 577
161 133 102
162 131 536
163 131 855
164 131 460
165 130 499
166 130 805
167 130 219
168 129 301
169 129 93
170 129 924
171 128 603
172 128 812
173 128 733
174 127 830
175 126 484
176 125 835
177 125 108
178 124 908
179 124 676
180 123 322
181 122 244
182 122 788
183 119 465
184 119 22
185 118 527
186 118 198
187 117 592
188 117 918
189 117 310
190 117 79
191 117 300
192 116 787
193 116 27
194 116 602
195 116 252
196 116 811
197 116 494
198 116 231
199 114 334
200 114 172
201 113 708
202 112 78
203 112 36
204 112 114
205 111 132
206 110 304
207 110 769
208 109 686
209 109 982
210 109 84
211 108 421
212 108 231
213 107 262
214 106 968
215 106 233
216 103 62
217 102 896
218 102 53
219 100 620
220 100 435
221 99 181
222 99 496
223 98 338
224 97 856
225 96 114
226 96 599
227 96 154
228 95 926
229 95 977
230 95 359
231 95 167
232 94 604
233 93 784
234 93 336
235 93 121
236 92 506
237 92 292
238 92 199
239 91 778
240 90 572
241 90 337
242 89 313
243 89 931
244 89 985
245 88 796
246 88 813
247 87 7
248 87 976
249 86 93
250 86 42
251 86 21
252 85 974
253 85 39
254 85 693
255 85 820
256 85 34
257 85 833
258 85 466
259 85 441
260 84 212
261 83 255
262 82 718
263 82 136
264 82 687
265 82 221
266 81 660
267 81 937
268 80 273
269 80 507
270 79 159
271 78 496
272 78 489
273 77 226
274 77 908
275 77 100
276 76 961
277 76 394
278 75 396
279 75 837
280 75 140
281 75 736
282 75 373
283 75 986
284 75 913
285 73 612
286 73 93
287 72 486
288 72 690
289 72 382
290 72 231
291 71 709
292 71 772
293 70 44
294 70 328
295 70 693
296 69 750
297 69 173
298 69 645
299 68 282
300 68 810
301 67 468
302 67 667
303 66 748
304 66 730
305 66 547
306 65 896
307 65 292
308 65 757
309 64 847
310 64 770
311 64 408
312 64 407
313 62 722
314 61 93
315 60 891
316 60 277
317 59 594
318 59 11
319 59 222
320 59 924
321 58 286
322 58 966
323 58 896
324 58 699
325 57 964
326 57 238
327 57 675
328 57 543
329 56 124
330 55 735
331 55 292
332 55 769
333 55 31
334 54 141
335 54 34
336 54 735
337 53 595
338 53 653
339 52 264
340 51 758
341 51 134
342 51 952
343 51 810
344 50 382
345 50 488
346 50 214
347 50 761
348 49 501
349 48 735
350 48 738
351 47 415
352 46 688
353 46 181
354 46 391
355 46 114
356 46 67
357 45 254
358 45 161
359 45 787
360 44 716
361 44 568
362 44 389
363 43 181
364 43 771
365 43 749
366 42 913
367 42 555
368 42 577
369 41 627
370 41 776
371 41 637
372 41 934
373 41 228
374 40 270
375 39 695
376 39 590
377 38 292
378 38 316
379 38 971
380 37 666
381 37 29
382 36 511
383 36 133
384 36 652
385 36 843
386 35 504
387 35 235
388 35 643
389 34 272
390 34 508
391 34 287
392 33 265
393 33 599
394 32 977
395 31 661
396 31 887
397 30 539
398 30 908
399 30 990
400 30 397
